; benchmark generated from python API
(set-info :status unknown)
(declare-fun cell_1_1 () Int)
(declare-fun cell_2_1 () Int)
(declare-fun cell_3_1 () Int)
(declare-fun cell_4_1 () Int)
(declare-fun cell_5_1 () Int)
(declare-fun cell_6_1 () Int)
(declare-fun cell_7_1 () Int)
(declare-fun cell_8_1 () Int)
(declare-fun cell_9_1 () Int)
(declare-fun cell_1_2 () Int)
(declare-fun cell_2_2 () Int)
(declare-fun cell_3_2 () Int)
(declare-fun cell_4_2 () Int)
(declare-fun cell_5_2 () Int)
(declare-fun cell_6_2 () Int)
(declare-fun cell_7_2 () Int)
(declare-fun cell_8_2 () Int)
(declare-fun cell_9_2 () Int)
(declare-fun cell_1_3 () Int)
(declare-fun cell_2_3 () Int)
(declare-fun cell_3_3 () Int)
(declare-fun cell_4_3 () Int)
(declare-fun cell_5_3 () Int)
(declare-fun cell_6_3 () Int)
(declare-fun cell_7_3 () Int)
(declare-fun cell_8_3 () Int)
(declare-fun cell_9_3 () Int)
(declare-fun cell_1_4 () Int)
(declare-fun cell_2_4 () Int)
(declare-fun cell_3_4 () Int)
(declare-fun cell_4_4 () Int)
(declare-fun cell_5_4 () Int)
(declare-fun cell_6_4 () Int)
(declare-fun cell_7_4 () Int)
(declare-fun cell_8_4 () Int)
(declare-fun cell_9_4 () Int)
(declare-fun cell_1_5 () Int)
(declare-fun cell_2_5 () Int)
(declare-fun cell_3_5 () Int)
(declare-fun cell_4_5 () Int)
(declare-fun cell_5_5 () Int)
(declare-fun cell_6_5 () Int)
(declare-fun cell_7_5 () Int)
(declare-fun cell_8_5 () Int)
(declare-fun cell_9_5 () Int)
(declare-fun cell_1_6 () Int)
(declare-fun cell_2_6 () Int)
(declare-fun cell_3_6 () Int)
(declare-fun cell_4_6 () Int)
(declare-fun cell_5_6 () Int)
(declare-fun cell_6_6 () Int)
(declare-fun cell_7_6 () Int)
(declare-fun cell_8_6 () Int)
(declare-fun cell_9_6 () Int)
(declare-fun cell_1_7 () Int)
(declare-fun cell_2_7 () Int)
(declare-fun cell_3_7 () Int)
(declare-fun cell_4_7 () Int)
(declare-fun cell_5_7 () Int)
(declare-fun cell_6_7 () Int)
(declare-fun cell_7_7 () Int)
(declare-fun cell_8_7 () Int)
(declare-fun cell_9_7 () Int)
(declare-fun cell_1_8 () Int)
(declare-fun cell_2_8 () Int)
(declare-fun cell_3_8 () Int)
(declare-fun cell_4_8 () Int)
(declare-fun cell_5_8 () Int)
(declare-fun cell_6_8 () Int)
(declare-fun cell_7_8 () Int)
(declare-fun cell_8_8 () Int)
(declare-fun cell_9_8 () Int)
(declare-fun cell_1_9 () Int)
(declare-fun cell_2_9 () Int)
(declare-fun cell_3_9 () Int)
(declare-fun cell_4_9 () Int)
(declare-fun cell_5_9 () Int)
(declare-fun cell_6_9 () Int)
(declare-fun cell_7_9 () Int)
(declare-fun cell_8_9 () Int)
(declare-fun cell_9_9 () Int)
(assert
 (let (($x8515 (= cell_1_1 9)))
 (let (($x10016 (= cell_1_1 8)))
 (let (($x5059 (= cell_1_1 7)))
 (let (($x4968 (= cell_1_1 6)))
 (let (($x9945 (= cell_1_1 5)))
 (let (($x4182 (= cell_1_1 4)))
 (let (($x8472 (= cell_1_1 3)))
 (let (($x2912 (= cell_1_1 2)))
 (let (($x9272 (= cell_1_1 1)))
 (or $x9272 $x2912 $x8472 $x4182 $x9945 $x4968 $x5059 $x10016 $x8515)))))))))))
(assert
 (let (($x196 (= cell_2_1 9)))
 (let (($x7941 (= cell_2_1 8)))
 (let (($x9781 (= cell_2_1 7)))
 (let (($x9388 (= cell_2_1 6)))
 (let (($x9658 (= cell_2_1 5)))
 (let (($x1127 (= cell_2_1 4)))
 (let (($x9615 (= cell_2_1 3)))
 (let (($x8838 (= cell_2_1 2)))
 (let (($x5583 (= cell_2_1 1)))
 (or $x5583 $x8838 $x9615 $x1127 $x9658 $x9388 $x9781 $x7941 $x196)))))))))))
(assert
 (let (($x4828 (= cell_3_1 9)))
 (let (($x5764 (= cell_3_1 8)))
 (let (($x1960 (= cell_3_1 7)))
 (let (($x8428 (= cell_3_1 6)))
 (let (($x10120 (= cell_3_1 5)))
 (let (($x5033 (= cell_3_1 4)))
 (let (($x1203 (= cell_3_1 3)))
 (let (($x8440 (= cell_3_1 2)))
 (let (($x2753 (= cell_3_1 1)))
 (or $x2753 $x8440 $x1203 $x5033 $x10120 $x8428 $x1960 $x5764 $x4828)))))))))))
(assert
 (let (($x611 (= cell_4_1 9)))
 (let (($x7393 (= cell_4_1 8)))
 (let (($x2901 (= cell_4_1 7)))
 (let (($x3301 (= cell_4_1 6)))
 (let (($x2570 (= cell_4_1 5)))
 (let (($x4872 (= cell_4_1 4)))
 (let (($x5393 (= cell_4_1 3)))
 (let (($x7739 (= cell_4_1 2)))
 (let (($x1533 (= cell_4_1 1)))
 (or $x1533 $x7739 $x5393 $x4872 $x2570 $x3301 $x2901 $x7393 $x611)))))))))))
(assert
 (let (($x7590 (= cell_5_1 9)))
 (let (($x5421 (= cell_5_1 8)))
 (let (($x8966 (= cell_5_1 7)))
 (let (($x4191 (= cell_5_1 6)))
 (let (($x1818 (= cell_5_1 5)))
 (let (($x2751 (= cell_5_1 4)))
 (let (($x9944 (= cell_5_1 3)))
 (let (($x1655 (= cell_5_1 2)))
 (let (($x6304 (= cell_5_1 1)))
 (or $x6304 $x1655 $x9944 $x2751 $x1818 $x4191 $x8966 $x5421 $x7590)))))))))))
(assert
 (let (($x1836 (= cell_6_1 9)))
 (let (($x7162 (= cell_6_1 8)))
 (let (($x2417 (= cell_6_1 7)))
 (let (($x7636 (= cell_6_1 6)))
 (let (($x26 (= cell_6_1 5)))
 (let (($x3764 (= cell_6_1 4)))
 (let (($x10262 (= cell_6_1 3)))
 (let (($x2245 (= cell_6_1 2)))
 (let (($x4395 (= cell_6_1 1)))
 (or $x4395 $x2245 $x10262 $x3764 $x26 $x7636 $x2417 $x7162 $x1836)))))))))))
(assert
 (let (($x8736 (= cell_7_1 9)))
 (let (($x7009 (= cell_7_1 8)))
 (let (($x9940 (= cell_7_1 7)))
 (let (($x4279 (= cell_7_1 6)))
 (let (($x4630 (= cell_7_1 5)))
 (let (($x6212 (= cell_7_1 4)))
 (let (($x846 (= cell_7_1 3)))
 (let (($x5612 (= cell_7_1 2)))
 (let (($x9770 (= cell_7_1 1)))
 (or $x9770 $x5612 $x846 $x6212 $x4630 $x4279 $x9940 $x7009 $x8736)))))))))))
(assert
 (let (($x1891 (= cell_8_1 9)))
 (let (($x10094 (= cell_8_1 8)))
 (let (($x7724 (= cell_8_1 7)))
 (let (($x445 (= cell_8_1 6)))
 (let (($x433 (= cell_8_1 5)))
 (let (($x9981 (= cell_8_1 4)))
 (let (($x8260 (= cell_8_1 3)))
 (let (($x4295 (= cell_8_1 2)))
 (let (($x5620 (= cell_8_1 1)))
 (or $x5620 $x4295 $x8260 $x9981 $x433 $x445 $x7724 $x10094 $x1891)))))))))))
(assert
 (let (($x8401 (= cell_9_1 9)))
 (let (($x9348 (= cell_9_1 8)))
 (let (($x385 (= cell_9_1 7)))
 (let (($x951 (= cell_9_1 6)))
 (let (($x3289 (= cell_9_1 5)))
 (let (($x7292 (= cell_9_1 4)))
 (let (($x9896 (= cell_9_1 3)))
 (let (($x2197 (= cell_9_1 2)))
 (let (($x8794 (= cell_9_1 1)))
 (or $x8794 $x2197 $x9896 $x7292 $x3289 $x951 $x385 $x9348 $x8401)))))))))))
(assert
 (let (($x1415 (= cell_1_2 9)))
 (let (($x9946 (= cell_1_2 8)))
 (let (($x7672 (= cell_1_2 7)))
 (let (($x8792 (= cell_1_2 6)))
 (let (($x1250 (= cell_1_2 5)))
 (let (($x8108 (= cell_1_2 4)))
 (let (($x4323 (= cell_1_2 3)))
 (let (($x6401 (= cell_1_2 2)))
 (let (($x3961 (= cell_1_2 1)))
 (or $x3961 $x6401 $x4323 $x8108 $x1250 $x8792 $x7672 $x9946 $x1415)))))))))))
(assert
 (let (($x2203 (= cell_2_2 9)))
 (let (($x2741 (= cell_2_2 8)))
 (let (($x4215 (= cell_2_2 7)))
 (let (($x2393 (= cell_2_2 6)))
 (let (($x2521 (= cell_2_2 5)))
 (let (($x9111 (= cell_2_2 4)))
 (let (($x865 (= cell_2_2 3)))
 (let (($x3394 (= cell_2_2 2)))
 (let (($x1605 (= cell_2_2 1)))
 (or $x1605 $x3394 $x865 $x9111 $x2521 $x2393 $x4215 $x2741 $x2203)))))))))))
(assert
 (let (($x1563 (= cell_3_2 9)))
 (let (($x6661 (= cell_3_2 8)))
 (let (($x4638 (= cell_3_2 7)))
 (let (($x9707 (= cell_3_2 6)))
 (let (($x8867 (= cell_3_2 5)))
 (let (($x1919 (= cell_3_2 4)))
 (let (($x7759 (= cell_3_2 3)))
 (let (($x6384 (= cell_3_2 2)))
 (let (($x9649 (= cell_3_2 1)))
 (or $x9649 $x6384 $x7759 $x1919 $x8867 $x9707 $x4638 $x6661 $x1563)))))))))))
(assert
 (let (($x8158 (= cell_4_2 9)))
 (let (($x6878 (= cell_4_2 8)))
 (let (($x877 (= cell_4_2 7)))
 (let (($x1971 (= cell_4_2 6)))
 (let (($x3542 (= cell_4_2 5)))
 (let (($x4188 (= cell_4_2 4)))
 (let (($x4294 (= cell_4_2 3)))
 (let (($x134 (= cell_4_2 2)))
 (let (($x2800 (= cell_4_2 1)))
 (or $x2800 $x134 $x4294 $x4188 $x3542 $x1971 $x877 $x6878 $x8158)))))))))))
(assert
 (let (($x7062 (= cell_5_2 9)))
 (let (($x5129 (= cell_5_2 8)))
 (let (($x9301 (= cell_5_2 7)))
 (let (($x5381 (= cell_5_2 6)))
 (let (($x10029 (= cell_5_2 5)))
 (let (($x8588 (= cell_5_2 4)))
 (let (($x6256 (= cell_5_2 3)))
 (let (($x6912 (= cell_5_2 2)))
 (let (($x9019 (= cell_5_2 1)))
 (or $x9019 $x6912 $x6256 $x8588 $x10029 $x5381 $x9301 $x5129 $x7062)))))))))))
(assert
 (let (($x9296 (= cell_6_2 9)))
 (let (($x7573 (= cell_6_2 8)))
 (let (($x2339 (= cell_6_2 7)))
 (let (($x4623 (= cell_6_2 6)))
 (let (($x1933 (= cell_6_2 5)))
 (let (($x9446 (= cell_6_2 4)))
 (let (($x2813 (= cell_6_2 3)))
 (let (($x5767 (= cell_6_2 2)))
 (let (($x7577 (= cell_6_2 1)))
 (or $x7577 $x5767 $x2813 $x9446 $x1933 $x4623 $x2339 $x7573 $x9296)))))))))))
(assert
 (let (($x5703 (= cell_7_2 9)))
 (let (($x5930 (= cell_7_2 8)))
 (let (($x7382 (= cell_7_2 7)))
 (let (($x9878 (= cell_7_2 6)))
 (let (($x5677 (= cell_7_2 5)))
 (let (($x10052 (= cell_7_2 4)))
 (let (($x3377 (= cell_7_2 3)))
 (let (($x4315 (= cell_7_2 2)))
 (let (($x6928 (= cell_7_2 1)))
 (or $x6928 $x4315 $x3377 $x10052 $x5677 $x9878 $x7382 $x5930 $x5703)))))))))))
(assert
 (let (($x3081 (= cell_8_2 9)))
 (let (($x1822 (= cell_8_2 8)))
 (let (($x7962 (= cell_8_2 7)))
 (let (($x3592 (= cell_8_2 6)))
 (let (($x4352 (= cell_8_2 5)))
 (let (($x8090 (= cell_8_2 4)))
 (let (($x2306 (= cell_8_2 3)))
 (let (($x3387 (= cell_8_2 2)))
 (let (($x2049 (= cell_8_2 1)))
 (or $x2049 $x3387 $x2306 $x8090 $x4352 $x3592 $x7962 $x1822 $x3081)))))))))))
(assert
 (let (($x3699 (= cell_9_2 9)))
 (let (($x9617 (= cell_9_2 8)))
 (let (($x8650 (= cell_9_2 7)))
 (let (($x170 (= cell_9_2 6)))
 (let (($x430 (= cell_9_2 5)))
 (let (($x5877 (= cell_9_2 4)))
 (let (($x1427 (= cell_9_2 3)))
 (let (($x5045 (= cell_9_2 2)))
 (let (($x4233 (= cell_9_2 1)))
 (or $x4233 $x5045 $x1427 $x5877 $x430 $x170 $x8650 $x9617 $x3699)))))))))))
(assert
 (let (($x288 (= cell_1_3 9)))
 (let (($x7082 (= cell_1_3 8)))
 (let (($x10019 (= cell_1_3 7)))
 (let (($x8827 (= cell_1_3 6)))
 (let (($x9197 (= cell_1_3 5)))
 (let (($x8365 (= cell_1_3 4)))
 (let (($x669 (= cell_1_3 3)))
 (let (($x5581 (= cell_1_3 2)))
 (let (($x8135 (= cell_1_3 1)))
 (or $x8135 $x5581 $x669 $x8365 $x9197 $x8827 $x10019 $x7082 $x288)))))))))))
(assert
 (let (($x157 (= cell_2_3 9)))
 (let (($x1561 (= cell_2_3 8)))
 (let (($x6361 (= cell_2_3 7)))
 (let (($x750 (= cell_2_3 6)))
 (let (($x7504 (= cell_2_3 5)))
 (let (($x10159 (= cell_2_3 4)))
 (let (($x10211 (= cell_2_3 3)))
 (let (($x3797 (= cell_2_3 2)))
 (let (($x9135 (= cell_2_3 1)))
 (or $x9135 $x3797 $x10211 $x10159 $x7504 $x750 $x6361 $x1561 $x157)))))))))))
(assert
 (let (($x1945 (= cell_3_3 9)))
 (let (($x3526 (= cell_3_3 8)))
 (let (($x8742 (= cell_3_3 7)))
 (let (($x1651 (= cell_3_3 6)))
 (let (($x9365 (= cell_3_3 5)))
 (let (($x3846 (= cell_3_3 4)))
 (let (($x159 (= cell_3_3 3)))
 (let (($x7813 (= cell_3_3 2)))
 (let (($x9414 (= cell_3_3 1)))
 (or $x9414 $x7813 $x159 $x3846 $x9365 $x1651 $x8742 $x3526 $x1945)))))))))))
(assert
 (let (($x8750 (= cell_4_3 9)))
 (let (($x8114 (= cell_4_3 8)))
 (let (($x7424 (= cell_4_3 7)))
 (let (($x4644 (= cell_4_3 6)))
 (let (($x9628 (= cell_4_3 5)))
 (let (($x7783 (= cell_4_3 4)))
 (let (($x3682 (= cell_4_3 3)))
 (let (($x2828 (= cell_4_3 2)))
 (let (($x9564 (= cell_4_3 1)))
 (or $x9564 $x2828 $x3682 $x7783 $x9628 $x4644 $x7424 $x8114 $x8750)))))))))))
(assert
 (let (($x553 (= cell_5_3 9)))
 (let (($x10121 (= cell_5_3 8)))
 (let (($x3220 (= cell_5_3 7)))
 (let (($x939 (= cell_5_3 6)))
 (let (($x8987 (= cell_5_3 5)))
 (let (($x7124 (= cell_5_3 4)))
 (let (($x2366 (= cell_5_3 3)))
 (let (($x6786 (= cell_5_3 2)))
 (let (($x93 (= cell_5_3 1)))
 (or $x93 $x6786 $x2366 $x7124 $x8987 $x939 $x3220 $x10121 $x553)))))))))))
(assert
 (let (($x772 (= cell_6_3 9)))
 (let (($x1579 (= cell_6_3 8)))
 (let (($x1138 (= cell_6_3 7)))
 (let (($x9303 (= cell_6_3 6)))
 (let (($x7140 (= cell_6_3 5)))
 (let (($x6418 (= cell_6_3 4)))
 (let (($x8560 (= cell_6_3 3)))
 (let (($x2414 (= cell_6_3 2)))
 (let (($x1467 (= cell_6_3 1)))
 (or $x1467 $x2414 $x8560 $x6418 $x7140 $x9303 $x1138 $x1579 $x772)))))))))))
(assert
 (let (($x2620 (= cell_7_3 9)))
 (let (($x1992 (= cell_7_3 8)))
 (let (($x660 (= cell_7_3 7)))
 (let (($x764 (= cell_7_3 6)))
 (let (($x4020 (= cell_7_3 5)))
 (let (($x4518 (= cell_7_3 4)))
 (let (($x1578 (= cell_7_3 3)))
 (let (($x136 (= cell_7_3 2)))
 (let (($x1424 (= cell_7_3 1)))
 (or $x1424 $x136 $x1578 $x4518 $x4020 $x764 $x660 $x1992 $x2620)))))))))))
(assert
 (let (($x8937 (= cell_8_3 9)))
 (let (($x5340 (= cell_8_3 8)))
 (let (($x8256 (= cell_8_3 7)))
 (let (($x4025 (= cell_8_3 6)))
 (let (($x8052 (= cell_8_3 5)))
 (let (($x5061 (= cell_8_3 4)))
 (let (($x2224 (= cell_8_3 3)))
 (let (($x627 (= cell_8_3 2)))
 (let (($x9359 (= cell_8_3 1)))
 (or $x9359 $x627 $x2224 $x5061 $x8052 $x4025 $x8256 $x5340 $x8937)))))))))))
(assert
 (let (($x4473 (= cell_9_3 9)))
 (let (($x8188 (= cell_9_3 8)))
 (let (($x1017 (= cell_9_3 7)))
 (let (($x5150 (= cell_9_3 6)))
 (let (($x9784 (= cell_9_3 5)))
 (let (($x9591 (= cell_9_3 4)))
 (let (($x7455 (= cell_9_3 3)))
 (let (($x9448 (= cell_9_3 2)))
 (let (($x5453 (= cell_9_3 1)))
 (or $x5453 $x9448 $x7455 $x9591 $x9784 $x5150 $x1017 $x8188 $x4473)))))))))))
(assert
 (let (($x9809 (= cell_1_4 9)))
 (let (($x3598 (= cell_1_4 8)))
 (let (($x871 (= cell_1_4 7)))
 (let (($x7798 (= cell_1_4 6)))
 (let (($x8310 (= cell_1_4 5)))
 (let (($x674 (= cell_1_4 4)))
 (let (($x409 (= cell_1_4 3)))
 (let (($x5864 (= cell_1_4 2)))
 (let (($x3032 (= cell_1_4 1)))
 (or $x3032 $x5864 $x409 $x674 $x8310 $x7798 $x871 $x3598 $x9809)))))))))))
(assert
 (let (($x7658 (= cell_2_4 9)))
 (let (($x4591 (= cell_2_4 8)))
 (let (($x617 (= cell_2_4 7)))
 (let (($x4665 (= cell_2_4 6)))
 (let (($x7477 (= cell_2_4 5)))
 (let (($x1266 (= cell_2_4 4)))
 (let (($x7175 (= cell_2_4 3)))
 (let (($x1236 (= cell_2_4 2)))
 (let (($x6135 (= cell_2_4 1)))
 (or $x6135 $x1236 $x7175 $x1266 $x7477 $x4665 $x617 $x4591 $x7658)))))))))))
(assert
 (let (($x4826 (= cell_3_4 9)))
 (let (($x6945 (= cell_3_4 8)))
 (let (($x1586 (= cell_3_4 7)))
 (let (($x7511 (= cell_3_4 6)))
 (let (($x8528 (= cell_3_4 5)))
 (let (($x8711 (= cell_3_4 4)))
 (let (($x8576 (= cell_3_4 3)))
 (let (($x2987 (= cell_3_4 2)))
 (let (($x10204 (= cell_3_4 1)))
 (or $x10204 $x2987 $x8576 $x8711 $x8528 $x7511 $x1586 $x6945 $x4826)))))))))))
(assert
 (let (($x4342 (= cell_4_4 9)))
 (let (($x4547 (= cell_4_4 8)))
 (let (($x6095 (= cell_4_4 7)))
 (let (($x5060 (= cell_4_4 6)))
 (let (($x2791 (= cell_4_4 5)))
 (let (($x7624 (= cell_4_4 4)))
 (let (($x7684 (= cell_4_4 3)))
 (let (($x2837 (= cell_4_4 2)))
 (let (($x10009 (= cell_4_4 1)))
 (or $x10009 $x2837 $x7684 $x7624 $x2791 $x5060 $x6095 $x4547 $x4342)))))))))))
(assert
 (let (($x6491 (= cell_5_4 9)))
 (let (($x6819 (= cell_5_4 8)))
 (let (($x3300 (= cell_5_4 7)))
 (let (($x4855 (= cell_5_4 6)))
 (let (($x8479 (= cell_5_4 5)))
 (let (($x2759 (= cell_5_4 4)))
 (let (($x3801 (= cell_5_4 3)))
 (let (($x9982 (= cell_5_4 2)))
 (let (($x7555 (= cell_5_4 1)))
 (or $x7555 $x9982 $x3801 $x2759 $x8479 $x4855 $x3300 $x6819 $x6491)))))))))))
(assert
 (let (($x6175 (= cell_6_4 9)))
 (let (($x9371 (= cell_6_4 8)))
 (let (($x2176 (= cell_6_4 7)))
 (let (($x5598 (= cell_6_4 6)))
 (let (($x6319 (= cell_6_4 5)))
 (let (($x910 (= cell_6_4 4)))
 (let (($x6957 (= cell_6_4 3)))
 (let (($x7090 (= cell_6_4 2)))
 (let (($x3201 (= cell_6_4 1)))
 (or $x3201 $x7090 $x6957 $x910 $x6319 $x5598 $x2176 $x9371 $x6175)))))))))))
(assert
 (let (($x461 (= cell_7_4 9)))
 (let (($x7185 (= cell_7_4 8)))
 (let (($x7139 (= cell_7_4 7)))
 (let (($x3641 (= cell_7_4 6)))
 (let (($x1234 (= cell_7_4 5)))
 (let (($x5622 (= cell_7_4 4)))
 (let (($x6902 (= cell_7_4 3)))
 (let (($x1549 (= cell_7_4 2)))
 (let (($x2381 (= cell_7_4 1)))
 (or $x2381 $x1549 $x6902 $x5622 $x1234 $x3641 $x7139 $x7185 $x461)))))))))))
(assert
 (let (($x5739 (= cell_8_4 9)))
 (let (($x8685 (= cell_8_4 8)))
 (let (($x2869 (= cell_8_4 7)))
 (let (($x4288 (= cell_8_4 6)))
 (let (($x10246 (= cell_8_4 5)))
 (let (($x5223 (= cell_8_4 4)))
 (let (($x5777 (= cell_8_4 3)))
 (let (($x8840 (= cell_8_4 2)))
 (let (($x9842 (= cell_8_4 1)))
 (or $x9842 $x8840 $x5777 $x5223 $x10246 $x4288 $x2869 $x8685 $x5739)))))))))))
(assert
 (let (($x2489 (= cell_9_4 9)))
 (let (($x6729 (= cell_9_4 8)))
 (let (($x6532 (= cell_9_4 7)))
 (let (($x6930 (= cell_9_4 6)))
 (let (($x1012 (= cell_9_4 5)))
 (let (($x5192 (= cell_9_4 4)))
 (let (($x5943 (= cell_9_4 3)))
 (let (($x6797 (= cell_9_4 2)))
 (let (($x4457 (= cell_9_4 1)))
 (or $x4457 $x6797 $x5943 $x5192 $x1012 $x6930 $x6532 $x6729 $x2489)))))))))))
(assert
 (let (($x1842 (= cell_1_5 9)))
 (let (($x8186 (= cell_1_5 8)))
 (let (($x2571 (= cell_1_5 7)))
 (let (($x5829 (= cell_1_5 6)))
 (let (($x5724 (= cell_1_5 5)))
 (let (($x4206 (= cell_1_5 4)))
 (let (($x380 (= cell_1_5 3)))
 (let (($x3515 (= cell_1_5 2)))
 (let (($x7178 (= cell_1_5 1)))
 (or $x7178 $x3515 $x380 $x4206 $x5724 $x5829 $x2571 $x8186 $x1842)))))))))))
(assert
 (let (($x3787 (= cell_2_5 9)))
 (let (($x3985 (= cell_2_5 8)))
 (let (($x489 (= cell_2_5 7)))
 (let (($x4641 (= cell_2_5 6)))
 (let (($x6840 (= cell_2_5 5)))
 (let (($x7048 (= cell_2_5 4)))
 (let (($x9541 (= cell_2_5 3)))
 (let (($x10186 (= cell_2_5 2)))
 (let (($x9409 (= cell_2_5 1)))
 (or $x9409 $x10186 $x9541 $x7048 $x6840 $x4641 $x489 $x3985 $x3787)))))))))))
(assert
 (let (($x880 (= cell_3_5 9)))
 (let (($x4889 (= cell_3_5 8)))
 (let (($x6277 (= cell_3_5 7)))
 (let (($x7024 (= cell_3_5 6)))
 (let (($x3849 (= cell_3_5 5)))
 (let (($x7738 (= cell_3_5 4)))
 (let (($x9255 (= cell_3_5 3)))
 (let (($x3953 (= cell_3_5 2)))
 (let (($x5361 (= cell_3_5 1)))
 (or $x5361 $x3953 $x9255 $x7738 $x3849 $x7024 $x6277 $x4889 $x880)))))))))))
(assert
 (let (($x3224 (= cell_4_5 9)))
 (let (($x1118 (= cell_4_5 8)))
 (let (($x9451 (= cell_4_5 7)))
 (let (($x87 (= cell_4_5 6)))
 (let (($x7855 (= cell_4_5 5)))
 (let (($x2173 (= cell_4_5 4)))
 (let (($x10153 (= cell_4_5 3)))
 (let (($x2890 (= cell_4_5 2)))
 (let (($x4050 (= cell_4_5 1)))
 (or $x4050 $x2890 $x10153 $x2173 $x7855 $x87 $x9451 $x1118 $x3224)))))))))))
(assert
 (let (($x199 (= cell_5_5 9)))
 (let (($x8778 (= cell_5_5 8)))
 (let (($x8532 (= cell_5_5 7)))
 (let (($x9120 (= cell_5_5 6)))
 (let (($x1797 (= cell_5_5 5)))
 (let (($x6605 (= cell_5_5 4)))
 (let (($x1042 (= cell_5_5 3)))
 (let (($x4777 (= cell_5_5 2)))
 (let (($x1904 (= cell_5_5 1)))
 (or $x1904 $x4777 $x1042 $x6605 $x1797 $x9120 $x8532 $x8778 $x199)))))))))))
(assert
 (let (($x8927 (= cell_6_5 9)))
 (let (($x681 (= cell_6_5 8)))
 (let (($x7296 (= cell_6_5 7)))
 (let (($x7773 (= cell_6_5 6)))
 (let (($x2925 (= cell_6_5 5)))
 (let (($x9729 (= cell_6_5 4)))
 (let (($x807 (= cell_6_5 3)))
 (let (($x5763 (= cell_6_5 2)))
 (let (($x4728 (= cell_6_5 1)))
 (or $x4728 $x5763 $x807 $x9729 $x2925 $x7773 $x7296 $x681 $x8927)))))))))))
(assert
 (let (($x10248 (= cell_7_5 9)))
 (let (($x8506 (= cell_7_5 8)))
 (let (($x4354 (= cell_7_5 7)))
 (let (($x1411 (= cell_7_5 6)))
 (let (($x734 (= cell_7_5 5)))
 (let (($x7488 (= cell_7_5 4)))
 (let (($x6757 (= cell_7_5 3)))
 (let (($x5788 (= cell_7_5 2)))
 (let (($x702 (= cell_7_5 1)))
 (or $x702 $x5788 $x6757 $x7488 $x734 $x1411 $x4354 $x8506 $x10248)))))))))))
(assert
 (let (($x8380 (= cell_8_5 9)))
 (let (($x1284 (= cell_8_5 8)))
 (let (($x4523 (= cell_8_5 7)))
 (let (($x4451 (= cell_8_5 6)))
 (let (($x369 (= cell_8_5 5)))
 (let (($x6365 (= cell_8_5 4)))
 (let (($x6895 (= cell_8_5 3)))
 (let (($x8466 (= cell_8_5 2)))
 (let (($x3525 (= cell_8_5 1)))
 (or $x3525 $x8466 $x6895 $x6365 $x369 $x4451 $x4523 $x1284 $x8380)))))))))))
(assert
 (let (($x7428 (= cell_9_5 9)))
 (let (($x6995 (= cell_9_5 8)))
 (let (($x3780 (= cell_9_5 7)))
 (let (($x8967 (= cell_9_5 6)))
 (let (($x9561 (= cell_9_5 5)))
 (let (($x9680 (= cell_9_5 4)))
 (let (($x8814 (= cell_9_5 3)))
 (let (($x7345 (= cell_9_5 2)))
 (let (($x1058 (= cell_9_5 1)))
 (or $x1058 $x7345 $x8814 $x9680 $x9561 $x8967 $x3780 $x6995 $x7428)))))))))))
(assert
 (let (($x9281 (= cell_1_6 9)))
 (let (($x9468 (= cell_1_6 8)))
 (let (($x3548 (= cell_1_6 7)))
 (let (($x4274 (= cell_1_6 6)))
 (let (($x5105 (= cell_1_6 5)))
 (let (($x2659 (= cell_1_6 4)))
 (let (($x9398 (= cell_1_6 3)))
 (let (($x9293 (= cell_1_6 2)))
 (let (($x5151 (= cell_1_6 1)))
 (or $x5151 $x9293 $x9398 $x2659 $x5105 $x4274 $x3548 $x9468 $x9281)))))))))))
(assert
 (let (($x4576 (= cell_2_6 9)))
 (let (($x6078 (= cell_2_6 8)))
 (let (($x2934 (= cell_2_6 7)))
 (let (($x6569 (= cell_2_6 6)))
 (let (($x5438 (= cell_2_6 5)))
 (let (($x4649 (= cell_2_6 4)))
 (let (($x7822 (= cell_2_6 3)))
 (let (($x5347 (= cell_2_6 2)))
 (let (($x112 (= cell_2_6 1)))
 (or $x112 $x5347 $x7822 $x4649 $x5438 $x6569 $x2934 $x6078 $x4576)))))))))))
(assert
 (let (($x9977 (= cell_3_6 9)))
 (let (($x2272 (= cell_3_6 8)))
 (let (($x6818 (= cell_3_6 7)))
 (let (($x9684 (= cell_3_6 6)))
 (let (($x8751 (= cell_3_6 5)))
 (let (($x7935 (= cell_3_6 4)))
 (let (($x6828 (= cell_3_6 3)))
 (let (($x8191 (= cell_3_6 2)))
 (let (($x6341 (= cell_3_6 1)))
 (or $x6341 $x8191 $x6828 $x7935 $x8751 $x9684 $x6818 $x2272 $x9977)))))))))))
(assert
 (let (($x550 (= cell_4_6 9)))
 (let (($x2361 (= cell_4_6 8)))
 (let (($x2187 (= cell_4_6 7)))
 (let (($x814 (= cell_4_6 6)))
 (let (($x2756 (= cell_4_6 5)))
 (let (($x4684 (= cell_4_6 4)))
 (let (($x428 (= cell_4_6 3)))
 (let (($x1624 (= cell_4_6 2)))
 (let (($x8590 (= cell_4_6 1)))
 (or $x8590 $x1624 $x428 $x4684 $x2756 $x814 $x2187 $x2361 $x550)))))))))))
(assert
 (let (($x8921 (= cell_5_6 9)))
 (let (($x4408 (= cell_5_6 8)))
 (let (($x6830 (= cell_5_6 7)))
 (let (($x4010 (= cell_5_6 6)))
 (let (($x7879 (= cell_5_6 5)))
 (let (($x7857 (= cell_5_6 4)))
 (let (($x4327 (= cell_5_6 3)))
 (let (($x2483 (= cell_5_6 2)))
 (let (($x5844 (= cell_5_6 1)))
 (or $x5844 $x2483 $x4327 $x7857 $x7879 $x4010 $x6830 $x4408 $x8921)))))))))))
(assert
 (let (($x5166 (= cell_6_6 9)))
 (let (($x7604 (= cell_6_6 8)))
 (let (($x8452 (= cell_6_6 7)))
 (let (($x4556 (= cell_6_6 6)))
 (let (($x2469 (= cell_6_6 5)))
 (let (($x2283 (= cell_6_6 4)))
 (let (($x8613 (= cell_6_6 3)))
 (let (($x4643 (= cell_6_6 2)))
 (let (($x2416 (= cell_6_6 1)))
 (or $x2416 $x4643 $x8613 $x2283 $x2469 $x4556 $x8452 $x7604 $x5166)))))))))))
(assert
 (let (($x8539 (= cell_7_6 9)))
 (let (($x7850 (= cell_7_6 8)))
 (let (($x8232 (= cell_7_6 7)))
 (let (($x113 (= cell_7_6 6)))
 (let (($x7397 (= cell_7_6 5)))
 (let (($x3154 (= cell_7_6 4)))
 (let (($x3828 (= cell_7_6 3)))
 (let (($x1604 (= cell_7_6 2)))
 (let (($x9656 (= cell_7_6 1)))
 (or $x9656 $x1604 $x3828 $x3154 $x7397 $x113 $x8232 $x7850 $x8539)))))))))))
(assert
 (let (($x7898 (= cell_8_6 9)))
 (let (($x5441 (= cell_8_6 8)))
 (let (($x9991 (= cell_8_6 7)))
 (let (($x4622 (= cell_8_6 6)))
 (let (($x4774 (= cell_8_6 5)))
 (let (($x349 (= cell_8_6 4)))
 (let (($x5288 (= cell_8_6 3)))
 (let (($x6906 (= cell_8_6 2)))
 (let (($x4353 (= cell_8_6 1)))
 (or $x4353 $x6906 $x5288 $x349 $x4774 $x4622 $x9991 $x5441 $x7898)))))))))))
(assert
 (let (($x8262 (= cell_9_6 9)))
 (let (($x2436 (= cell_9_6 8)))
 (let (($x6546 (= cell_9_6 7)))
 (let (($x375 (= cell_9_6 6)))
 (let (($x5140 (= cell_9_6 5)))
 (let (($x4956 (= cell_9_6 4)))
 (let (($x6589 (= cell_9_6 3)))
 (let (($x5348 (= cell_9_6 2)))
 (let (($x5801 (= cell_9_6 1)))
 (or $x5801 $x5348 $x6589 $x4956 $x5140 $x375 $x6546 $x2436 $x8262)))))))))))
(assert
 (let (($x9492 (= cell_1_7 9)))
 (let (($x9196 (= cell_1_7 8)))
 (let (($x548 (= cell_1_7 7)))
 (let (($x1768 (= cell_1_7 6)))
 (let (($x5821 (= cell_1_7 5)))
 (let (($x6302 (= cell_1_7 4)))
 (let (($x1470 (= cell_1_7 3)))
 (let (($x9837 (= cell_1_7 2)))
 (let (($x8063 (= cell_1_7 1)))
 (or $x8063 $x9837 $x1470 $x6302 $x5821 $x1768 $x548 $x9196 $x9492)))))))))))
(assert
 (let (($x6505 (= cell_2_7 9)))
 (let (($x4478 (= cell_2_7 8)))
 (let (($x7551 (= cell_2_7 7)))
 (let (($x435 (= cell_2_7 6)))
 (let (($x4459 (= cell_2_7 5)))
 (let (($x3895 (= cell_2_7 4)))
 (let (($x4642 (= cell_2_7 3)))
 (let (($x8227 (= cell_2_7 2)))
 (let (($x2440 (= cell_2_7 1)))
 (or $x2440 $x8227 $x4642 $x3895 $x4459 $x435 $x7551 $x4478 $x6505)))))))))))
(assert
 (let (($x4847 (= cell_3_7 9)))
 (let (($x5765 (= cell_3_7 8)))
 (let (($x5369 (= cell_3_7 7)))
 (let (($x2228 (= cell_3_7 6)))
 (let (($x9863 (= cell_3_7 5)))
 (let (($x8138 (= cell_3_7 4)))
 (let (($x1190 (= cell_3_7 3)))
 (let (($x562 (= cell_3_7 2)))
 (let (($x4281 (= cell_3_7 1)))
 (or $x4281 $x562 $x1190 $x8138 $x9863 $x2228 $x5369 $x5765 $x4847)))))))))))
(assert
 (let (($x3851 (= cell_4_7 9)))
 (let (($x3771 (= cell_4_7 8)))
 (let (($x1239 (= cell_4_7 7)))
 (let (($x4332 (= cell_4_7 6)))
 (let (($x3834 (= cell_4_7 5)))
 (let (($x6039 (= cell_4_7 4)))
 (let (($x3455 (= cell_4_7 3)))
 (let (($x9973 (= cell_4_7 2)))
 (let (($x9345 (= cell_4_7 1)))
 (or $x9345 $x9973 $x3455 $x6039 $x3834 $x4332 $x1239 $x3771 $x3851)))))))))))
(assert
 (let (($x2120 (= cell_5_7 9)))
 (let (($x2691 (= cell_5_7 8)))
 (let (($x6254 (= cell_5_7 7)))
 (let (($x6015 (= cell_5_7 6)))
 (let (($x2145 (= cell_5_7 5)))
 (let (($x8737 (= cell_5_7 4)))
 (let (($x4729 (= cell_5_7 3)))
 (let (($x242 (= cell_5_7 2)))
 (let (($x3436 (= cell_5_7 1)))
 (or $x3436 $x242 $x4729 $x8737 $x2145 $x6015 $x6254 $x2691 $x2120)))))))))))
(assert
 (let (($x7681 (= cell_6_7 9)))
 (let (($x2389 (= cell_6_7 8)))
 (let (($x2686 (= cell_6_7 7)))
 (let (($x8236 (= cell_6_7 6)))
 (let (($x1975 (= cell_6_7 5)))
 (let (($x5171 (= cell_6_7 4)))
 (let (($x6586 (= cell_6_7 3)))
 (let (($x1920 (= cell_6_7 2)))
 (let (($x8574 (= cell_6_7 1)))
 (or $x8574 $x1920 $x6586 $x5171 $x1975 $x8236 $x2686 $x2389 $x7681)))))))))))
(assert
 (let (($x9141 (= cell_7_7 9)))
 (let (($x9677 (= cell_7_7 8)))
 (let (($x6358 (= cell_7_7 7)))
 (let (($x9279 (= cell_7_7 6)))
 (let (($x6236 (= cell_7_7 5)))
 (let (($x9292 (= cell_7_7 4)))
 (let (($x8606 (= cell_7_7 3)))
 (let (($x123 (= cell_7_7 2)))
 (let (($x1912 (= cell_7_7 1)))
 (or $x1912 $x123 $x8606 $x9292 $x6236 $x9279 $x6358 $x9677 $x9141)))))))))))
(assert
 (let (($x4366 (= cell_8_7 9)))
 (let (($x708 (= cell_8_7 8)))
 (let (($x18 (= cell_8_7 7)))
 (let (($x6252 (= cell_8_7 6)))
 (let (($x2648 (= cell_8_7 5)))
 (let (($x1819 (= cell_8_7 4)))
 (let (($x4760 (= cell_8_7 3)))
 (let (($x5803 (= cell_8_7 2)))
 (let (($x6042 (= cell_8_7 1)))
 (or $x6042 $x5803 $x4760 $x1819 $x2648 $x6252 $x18 $x708 $x4366)))))))))))
(assert
 (let (($x5676 (= cell_9_7 9)))
 (let (($x2788 (= cell_9_7 8)))
 (let (($x3329 (= cell_9_7 7)))
 (let (($x2496 (= cell_9_7 6)))
 (let (($x8421 (= cell_9_7 5)))
 (let (($x3830 (= cell_9_7 4)))
 (let (($x9562 (= cell_9_7 3)))
 (let (($x3666 (= cell_9_7 2)))
 (let (($x2486 (= cell_9_7 1)))
 (or $x2486 $x3666 $x9562 $x3830 $x8421 $x2496 $x3329 $x2788 $x5676)))))))))))
(assert
 (let (($x3896 (= cell_1_8 9)))
 (let (($x1793 (= cell_1_8 8)))
 (let (($x10056 (= cell_1_8 7)))
 (let (($x9762 (= cell_1_8 6)))
 (let (($x3030 (= cell_1_8 5)))
 (let (($x8688 (= cell_1_8 4)))
 (let (($x4678 (= cell_1_8 3)))
 (let (($x6954 (= cell_1_8 2)))
 (let (($x10145 (= cell_1_8 1)))
 (or $x10145 $x6954 $x4678 $x8688 $x3030 $x9762 $x10056 $x1793 $x3896)))))))))))
(assert
 (let (($x2967 (= cell_2_8 9)))
 (let (($x1035 (= cell_2_8 8)))
 (let (($x9099 (= cell_2_8 7)))
 (let (($x1397 (= cell_2_8 6)))
 (let (($x5397 (= cell_2_8 5)))
 (let (($x7084 (= cell_2_8 4)))
 (let (($x3783 (= cell_2_8 3)))
 (let (($x6403 (= cell_2_8 2)))
 (let (($x6134 (= cell_2_8 1)))
 (or $x6134 $x6403 $x3783 $x7084 $x5397 $x1397 $x9099 $x1035 $x2967)))))))))))
(assert
 (let (($x8922 (= cell_3_8 9)))
 (let (($x9515 (= cell_3_8 8)))
 (let (($x5390 (= cell_3_8 7)))
 (let (($x10026 (= cell_3_8 6)))
 (let (($x2900 (= cell_3_8 5)))
 (let (($x2270 (= cell_3_8 4)))
 (let (($x6350 (= cell_3_8 3)))
 (let (($x4568 (= cell_3_8 2)))
 (let (($x3037 (= cell_3_8 1)))
 (or $x3037 $x4568 $x6350 $x2270 $x2900 $x10026 $x5390 $x9515 $x8922)))))))))))
(assert
 (let (($x4734 (= cell_4_8 9)))
 (let (($x2367 (= cell_4_8 8)))
 (let (($x5256 (= cell_4_8 7)))
 (let (($x1599 (= cell_4_8 6)))
 (let (($x5974 (= cell_4_8 5)))
 (let (($x8551 (= cell_4_8 4)))
 (let (($x1245 (= cell_4_8 3)))
 (let (($x2720 (= cell_4_8 2)))
 (let (($x5098 (= cell_4_8 1)))
 (or $x5098 $x2720 $x1245 $x8551 $x5974 $x1599 $x5256 $x2367 $x4734)))))))))))
(assert
 (let (($x1213 (= cell_5_8 9)))
 (let (($x4127 (= cell_5_8 8)))
 (let (($x3994 (= cell_5_8 7)))
 (let (($x7514 (= cell_5_8 6)))
 (let (($x6471 (= cell_5_8 5)))
 (let (($x8583 (= cell_5_8 4)))
 (let (($x1977 (= cell_5_8 3)))
 (let (($x3106 (= cell_5_8 2)))
 (let (($x6487 (= cell_5_8 1)))
 (or $x6487 $x3106 $x1977 $x8583 $x6471 $x7514 $x3994 $x4127 $x1213)))))))))))
(assert
 (let (($x4297 (= cell_6_8 9)))
 (let (($x7223 (= cell_6_8 8)))
 (let (($x9355 (= cell_6_8 7)))
 (let (($x52 (= cell_6_8 6)))
 (let (($x3296 (= cell_6_8 5)))
 (let (($x1951 (= cell_6_8 4)))
 (let (($x5454 (= cell_6_8 3)))
 (let (($x1750 (= cell_6_8 2)))
 (let (($x2166 (= cell_6_8 1)))
 (or $x2166 $x1750 $x5454 $x1951 $x3296 $x52 $x9355 $x7223 $x4297)))))))))))
(assert
 (let (($x6655 (= cell_7_8 9)))
 (let (($x2943 (= cell_7_8 8)))
 (let (($x1297 (= cell_7_8 7)))
 (let (($x2153 (= cell_7_8 6)))
 (let (($x4026 (= cell_7_8 5)))
 (let (($x4550 (= cell_7_8 4)))
 (let (($x984 (= cell_7_8 3)))
 (let (($x5817 (= cell_7_8 2)))
 (let (($x9547 (= cell_7_8 1)))
 (or $x9547 $x5817 $x984 $x4550 $x4026 $x2153 $x1297 $x2943 $x6655)))))))))))
(assert
 (let (($x6285 (= cell_8_8 9)))
 (let (($x2311 (= cell_8_8 8)))
 (let (($x2790 (= cell_8_8 7)))
 (let (($x4214 (= cell_8_8 6)))
 (let (($x1481 (= cell_8_8 5)))
 (let (($x7375 (= cell_8_8 4)))
 (let (($x5815 (= cell_8_8 3)))
 (let (($x1103 (= cell_8_8 2)))
 (let (($x6663 (= cell_8_8 1)))
 (or $x6663 $x1103 $x5815 $x7375 $x1481 $x4214 $x2790 $x2311 $x6285)))))))))))
(assert
 (let (($x6684 (= cell_9_8 9)))
 (let (($x8221 (= cell_9_8 8)))
 (let (($x7440 (= cell_9_8 7)))
 (let (($x3354 (= cell_9_8 6)))
 (let (($x9464 (= cell_9_8 5)))
 (let (($x2888 (= cell_9_8 4)))
 (let (($x6322 (= cell_9_8 3)))
 (let (($x2273 (= cell_9_8 2)))
 (let (($x3963 (= cell_9_8 1)))
 (or $x3963 $x2273 $x6322 $x2888 $x9464 $x3354 $x7440 $x8221 $x6684)))))))))))
(assert
 (let (($x9511 (= cell_1_9 9)))
 (let (($x5487 (= cell_1_9 8)))
 (let (($x8559 (= cell_1_9 7)))
 (let (($x1276 (= cell_1_9 6)))
 (let (($x4428 (= cell_1_9 5)))
 (let (($x9240 (= cell_1_9 4)))
 (let (($x6009 (= cell_1_9 3)))
 (let (($x5541 (= cell_1_9 2)))
 (let (($x1253 (= cell_1_9 1)))
 (or $x1253 $x5541 $x6009 $x9240 $x4428 $x1276 $x8559 $x5487 $x9511)))))))))))
(assert
 (let (($x7888 (= cell_2_9 9)))
 (let (($x975 (= cell_2_9 8)))
 (let (($x5945 (= cell_2_9 7)))
 (let (($x54 (= cell_2_9 6)))
 (let (($x6560 (= cell_2_9 5)))
 (let (($x1576 (= cell_2_9 4)))
 (let (($x2550 (= cell_2_9 3)))
 (let (($x8886 (= cell_2_9 2)))
 (let (($x10218 (= cell_2_9 1)))
 (or $x10218 $x8886 $x2550 $x1576 $x6560 $x54 $x5945 $x975 $x7888)))))))))))
(assert
 (let (($x4424 (= cell_3_9 9)))
 (let (($x1983 (= cell_3_9 8)))
 (let (($x10102 (= cell_3_9 7)))
 (let (($x5713 (= cell_3_9 6)))
 (let (($x8333 (= cell_3_9 5)))
 (let (($x8417 (= cell_3_9 4)))
 (let (($x6167 (= cell_3_9 3)))
 (let (($x5538 (= cell_3_9 2)))
 (let (($x9780 (= cell_3_9 1)))
 (or $x9780 $x5538 $x6167 $x8417 $x8333 $x5713 $x10102 $x1983 $x4424)))))))))))
(assert
 (let (($x6366 (= cell_4_9 9)))
 (let (($x7118 (= cell_4_9 8)))
 (let (($x3522 (= cell_4_9 7)))
 (let (($x9075 (= cell_4_9 6)))
 (let (($x1194 (= cell_4_9 5)))
 (let (($x4437 (= cell_4_9 4)))
 (let (($x4153 (= cell_4_9 3)))
 (let (($x9614 (= cell_4_9 2)))
 (let (($x7131 (= cell_4_9 1)))
 (or $x7131 $x9614 $x4153 $x4437 $x1194 $x9075 $x3522 $x7118 $x6366)))))))))))
(assert
 (let (($x3931 (= cell_5_9 9)))
 (let (($x1033 (= cell_5_9 8)))
 (let (($x927 (= cell_5_9 7)))
 (let (($x8450 (= cell_5_9 6)))
 (let (($x829 (= cell_5_9 5)))
 (let (($x6926 (= cell_5_9 4)))
 (let (($x6660 (= cell_5_9 3)))
 (let (($x2280 (= cell_5_9 2)))
 (let (($x1172 (= cell_5_9 1)))
 (or $x1172 $x2280 $x6660 $x6926 $x829 $x8450 $x927 $x1033 $x3931)))))))))))
(assert
 (let (($x8168 (= cell_6_9 9)))
 (let (($x4012 (= cell_6_9 8)))
 (let (($x9808 (= cell_6_9 7)))
 (let (($x3343 (= cell_6_9 6)))
 (let (($x1555 (= cell_6_9 5)))
 (let (($x793 (= cell_6_9 4)))
 (let (($x9076 (= cell_6_9 3)))
 (let (($x2222 (= cell_6_9 2)))
 (let (($x8630 (= cell_6_9 1)))
 (or $x8630 $x2222 $x9076 $x793 $x1555 $x3343 $x9808 $x4012 $x8168)))))))))))
(assert
 (let (($x1827 (= cell_7_9 9)))
 (let (($x9566 (= cell_7_9 8)))
 (let (($x1440 (= cell_7_9 7)))
 (let (($x9971 (= cell_7_9 6)))
 (let (($x4220 (= cell_7_9 5)))
 (let (($x10185 (= cell_7_9 4)))
 (let (($x4339 (= cell_7_9 3)))
 (let (($x5893 (= cell_7_9 2)))
 (let (($x9471 (= cell_7_9 1)))
 (or $x9471 $x5893 $x4339 $x10185 $x4220 $x9971 $x1440 $x9566 $x1827)))))))))))
(assert
 (let (($x9712 (= cell_8_9 9)))
 (let (($x9671 (= cell_8_9 8)))
 (let (($x8619 (= cell_8_9 7)))
 (let (($x4105 (= cell_8_9 6)))
 (let (($x4071 (= cell_8_9 5)))
 (let (($x4141 (= cell_8_9 4)))
 (let (($x9342 (= cell_8_9 3)))
 (let (($x8361 (= cell_8_9 2)))
 (let (($x8037 (= cell_8_9 1)))
 (or $x8037 $x8361 $x9342 $x4141 $x4071 $x4105 $x8619 $x9671 $x9712)))))))))))
(assert
 (let (($x9865 (= cell_9_9 9)))
 (let (($x861 (= cell_9_9 8)))
 (let (($x7350 (= cell_9_9 7)))
 (let (($x2220 (= cell_9_9 6)))
 (let (($x3982 (= cell_9_9 5)))
 (let (($x2006 (= cell_9_9 4)))
 (let (($x7492 (= cell_9_9 3)))
 (let (($x2227 (= cell_9_9 2)))
 (let (($x6820 (= cell_9_9 1)))
 (or $x6820 $x2227 $x7492 $x2006 $x3982 $x2220 $x7350 $x861 $x9865)))))))))))
(assert
 (and (distinct cell_1_1 cell_1_2 cell_1_3 cell_1_4 cell_1_5 cell_1_6 cell_1_7 cell_1_8 cell_1_9) true))
(assert
 (and (distinct cell_2_1 cell_2_2 cell_2_3 cell_2_4 cell_2_5 cell_2_6 cell_2_7 cell_2_8 cell_2_9) true))
(assert
 (and (distinct cell_3_1 cell_3_2 cell_3_3 cell_3_4 cell_3_5 cell_3_6 cell_3_7 cell_3_8 cell_3_9) true))
(assert
 (and (distinct cell_4_1 cell_4_2 cell_4_3 cell_4_4 cell_4_5 cell_4_6 cell_4_7 cell_4_8 cell_4_9) true))
(assert
 (and (distinct cell_5_1 cell_5_2 cell_5_3 cell_5_4 cell_5_5 cell_5_6 cell_5_7 cell_5_8 cell_5_9) true))
(assert
 (and (distinct cell_6_1 cell_6_2 cell_6_3 cell_6_4 cell_6_5 cell_6_6 cell_6_7 cell_6_8 cell_6_9) true))
(assert
 (and (distinct cell_7_1 cell_7_2 cell_7_3 cell_7_4 cell_7_5 cell_7_6 cell_7_7 cell_7_8 cell_7_9) true))
(assert
 (and (distinct cell_8_1 cell_8_2 cell_8_3 cell_8_4 cell_8_5 cell_8_6 cell_8_7 cell_8_8 cell_8_9) true))
(assert
 (and (distinct cell_9_1 cell_9_2 cell_9_3 cell_9_4 cell_9_5 cell_9_6 cell_9_7 cell_9_8 cell_9_9) true))
(assert
 (and (distinct cell_1_1 cell_2_1 cell_3_1 cell_4_1 cell_5_1 cell_6_1 cell_7_1 cell_8_1 cell_9_1) true))
(assert
 (and (distinct cell_1_2 cell_2_2 cell_3_2 cell_4_2 cell_5_2 cell_6_2 cell_7_2 cell_8_2 cell_9_2) true))
(assert
 (and (distinct cell_1_3 cell_2_3 cell_3_3 cell_4_3 cell_5_3 cell_6_3 cell_7_3 cell_8_3 cell_9_3) true))
(assert
 (and (distinct cell_1_4 cell_2_4 cell_3_4 cell_4_4 cell_5_4 cell_6_4 cell_7_4 cell_8_4 cell_9_4) true))
(assert
 (and (distinct cell_1_5 cell_2_5 cell_3_5 cell_4_5 cell_5_5 cell_6_5 cell_7_5 cell_8_5 cell_9_5) true))
(assert
 (and (distinct cell_1_6 cell_2_6 cell_3_6 cell_4_6 cell_5_6 cell_6_6 cell_7_6 cell_8_6 cell_9_6) true))
(assert
 (and (distinct cell_1_7 cell_2_7 cell_3_7 cell_4_7 cell_5_7 cell_6_7 cell_7_7 cell_8_7 cell_9_7) true))
(assert
 (and (distinct cell_1_8 cell_2_8 cell_3_8 cell_4_8 cell_5_8 cell_6_8 cell_7_8 cell_8_8 cell_9_8) true))
(assert
 (and (distinct cell_1_9 cell_2_9 cell_3_9 cell_4_9 cell_5_9 cell_6_9 cell_7_9 cell_8_9 cell_9_9) true))
(assert
 (and (distinct cell_1_1 cell_1_2 cell_1_3 cell_2_1 cell_2_2 cell_2_3 cell_3_1 cell_3_2 cell_3_3) true))
(assert
 (and (distinct cell_1_4 cell_1_5 cell_1_6 cell_2_4 cell_2_5 cell_2_6 cell_3_4 cell_3_5 cell_3_6) true))
(assert
 (and (distinct cell_1_7 cell_1_8 cell_1_9 cell_2_7 cell_2_8 cell_2_9 cell_3_7 cell_3_8 cell_3_9) true))
(assert
 (and (distinct cell_4_1 cell_4_2 cell_4_3 cell_5_1 cell_5_2 cell_5_3 cell_6_1 cell_6_2 cell_6_3) true))
(assert
 (and (distinct cell_4_4 cell_4_5 cell_4_6 cell_5_4 cell_5_5 cell_5_6 cell_6_4 cell_6_5 cell_6_6) true))
(assert
 (and (distinct cell_4_7 cell_4_8 cell_4_9 cell_5_7 cell_5_8 cell_5_9 cell_6_7 cell_6_8 cell_6_9) true))
(assert
 (and (distinct cell_7_1 cell_7_2 cell_7_3 cell_8_1 cell_8_2 cell_8_3 cell_9_1 cell_9_2 cell_9_3) true))
(assert
 (and (distinct cell_7_4 cell_7_5 cell_7_6 cell_8_4 cell_8_5 cell_8_6 cell_9_4 cell_9_5 cell_9_6) true))
(assert
 (and (distinct cell_7_7 cell_7_8 cell_7_9 cell_8_7 cell_8_8 cell_8_9 cell_9_7 cell_9_8 cell_9_9) true))
(assert
 (let (($x4084 (and (distinct cell_5_9 cell_6_8 cell_7_7 cell_8_6) true)))
 (let (($x4608 (and (distinct cell_2_9 cell_3_8 cell_4_7 cell_5_6 cell_6_5 cell_7_4 cell_8_3 cell_9_2) true)))
 (let (($x1398 (and (distinct cell_1_8 cell_2_7 cell_3_6 cell_4_5 cell_5_4 cell_6_3 cell_7_2 cell_8_1) true)))
 (let (($x9686 (and (distinct cell_1_5 cell_2_4 cell_3_3 cell_4_2) true)))
 (let (($x2055 (and (distinct cell_5_1 cell_6_2 cell_7_3 cell_8_4) true)))
 (let (($x8249 (and (distinct cell_2_1 cell_3_2 cell_4_3 cell_5_4 cell_6_5 cell_7_6 cell_8_7 cell_9_8) true)))
 (let (($x8482 (and (distinct cell_1_2 cell_2_3 cell_3_4 cell_4_5 cell_5_6 cell_6_7 cell_7_8 cell_8_9) true)))
 (let (($x3902 (and (distinct cell_1_5 cell_2_6 cell_3_7 cell_4_8) true)))
 (and $x3902 $x8482 $x8249 $x2055 $x9686 $x1398 $x4608 $x4084))))))))))
(assert
 (= cell_1_9 1))
(assert
 (= cell_2_6 1))
(assert
 (= cell_3_2 1))
(assert
 (= cell_4_5 1))
(assert
 (= cell_5_3 1))
(assert
 (= cell_6_8 1))
(assert
 (= cell_7_1 1))
(assert
 (= cell_8_4 1))
(assert
 (= cell_9_7 1))
(assert
 (= cell_1_2 2))
(assert
 (= cell_2_4 2))
(assert
 (= cell_3_7 2))
(assert
 (= cell_4_6 2))
(assert
 (= cell_5_9 2))
(assert
 (= cell_6_1 2))
(assert
 (= cell_7_5 2))
(assert
 (= cell_8_3 2))
(assert
 (= cell_9_8 2))
(assert
 (= cell_1_8 3))
(check-sat)

